# Solution for model GasLib-40
# Objective value = 5.9378310797507424e+01
loadshed[innode_1] 0
loadshed[innode_2] 0
loadshed[innode_3] 0
loadshed[innode_4] 0
loadshed[innode_5] 0
loadshed[innode_6] 0
loadshed[innode_7] 0
loadshed[innode_8] 0
loadshed[source_1] -7.7855993455194783e-02
loadshed[source_2] 8.0116404519901541e-02
loadshed[source_3] 3.7333707432243934e-01
loadshed[sink_1] 6.9018744223809425e-01
loadshed[sink_2] 0
loadshed[sink_3] 0
loadshed[sink_4] 0
loadshed[sink_5] 0
loadshed[sink_6] 0
loadshed[sink_7] 0
loadshed[sink_8] 0
loadshed[sink_9] 0
loadshed[sink_10] 0
loadshed[sink_11] 0
loadshed[sink_12] 1
loadshed[sink_13] 0
loadshed[sink_14] 0
loadshed[sink_15] 0
loadshed[sink_16] 0
loadshed[sink_17] 0
loadshed[sink_18] 0
loadshed[sink_19] 0
loadshed[sink_20] 0
loadshed[sink_21] 1
loadshed[sink_22] 0
loadshed[sink_23] 0
loadshed[sink_24] 9.4058824983879241e-01
loadshed[sink_25] 0
loadshed[sink_26] 0
loadshed[sink_27] 0
loadshed[sink_28] 0
loadshed[sink_29] 0
flow[source_1,sink_3] 1.7039855340977437e+02
flow[innode_1,sink_16] 1.6354166666666970e+01
flow[innode_6,sink_13] 1.5409850673279536e+01
flow[sink_13,sink_14] -9.4431599338713212e-01
flow[sink_14,sink_10] -17.2984826600538
flow[sink_25,sink_26] 0
flow[sink_26,sink_9] 6.2941318726017073e+01
flow[sink_9,sink_18] 46.5871520593504
flow[sink_26,sink_4] -7.9295485392683716e+01
flow[sink_4,sink_20] -1.6958002253582757e+02
flow[sink_18,sink_6] 3.0232985392683734e+01
flow[sink_25,innode_8] -1.3769022007643798e+02
flow[sink_6,sink_7] -7.5420741457140821e+00
flow[sink_6,sink_22] 2.1420892871731169e+01
flow[sink_7,sink_24] 9.7162966409475082e-01
flow[sink_22,sink_1] 5.0667262050645006e+00
flow[sink_24,sink_21] 0
flow[sink_21,sink_12] 0
flow[sink_7,sink_5] -24.8678704764755
flow[sink_5,sink_17] -4.1222037143142160e+01
flow[sink_17,sink_4] -7.3930370476477208e+01
flow[sink_17,sink_8] 1.6354166666668334e+01
flow[sink_3,sink_23] 16.3541666666697
flow[sink_8,sink_20] 0
flow[sink_25,sink_20] 1.8593418920249428e+02
flow[sink_25,sink_15] -8.0007986466001839e+01
flow[sink_15,sink_29] -5.4753484344892470e+01
flow[sink_29,sink_28] 1.6354166666667879e+01
flow[sink_29,sink_2] 5.7962835454442704e+01
flow[sink_2,sink_15] 4.1608668787776040e+01
flow[sink_29,innode_7] -1.4542465313266973e+02
flow[innode_4,sink_19] 8.2715149326720763e+01
flow[sink_19,innode_3] 3.2383879428550877e+01
flow[innode_4,innode_5] 1.6354166666679703e+01
flow[sink_27,innode_5] -1.6354166666679703e+01
flow[sink_27,sink_19] 0
flow[sink_10,sink_11] 3.2708333333333641e+01
flow[sink_10,innode_2] -3.3977103231503229e+01
flow[sink_10,innode_3] -3.2383879428550877e+01
flow[innode_6,sink_25] -1.5409850673279536e+01
flow[sink_11,innode_1] 1.6354166666666970e+01
flow[sink_19,innode_2] 3.3977103231503229e+01
flow[source_3,innode_4] 9.9069315993400465e+01
flow[source_2,innode_7] 1.4542465313266973e+02
flow[sink_3,innode_8] 1.3769022007643798e+02
pressure[innode_1] 7.5714716997952024e+01
pressure[innode_2] 7.7662248541372833e+01
pressure[innode_3] 7.7590538107454847e+01
pressure[innode_4] 81.01325
pressure[innode_5] 8.1002000741808772e+01
pressure[innode_6] 75.1314863629585
pressure[innode_7] 81.01325
pressure[innode_8] 8.0443672730557950e+01
pressure[source_1] 81.01325
pressure[source_2] 81.01325
pressure[source_3] 81.01325
pressure[sink_1] 1.0132500000000002e+00
pressure[sink_2] 7.5655446192036749e+01
pressure[sink_3] 8.0443672730557950e+01
pressure[sink_4] 1.8364165219751893e+01
pressure[sink_5] 1.2468046432280566e+01
pressure[sink_6] 2.0221588677119593e+00
pressure[sink_7] 2.1256935681487810e+00
pressure[sink_8] 1.4921705042588448e+01
pressure[sink_9] 4.5151316082242365e+00
pressure[sink_10] 7.5866418305555570e+01
pressure[sink_11] 7.5714716997952024e+01
pressure[sink_12] 1.01325
pressure[sink_13] 7.5046534431421989e+01
pressure[sink_14] 7.5048224365330242e+01
pressure[sink_15] 7.5519603058847551e+01
pressure[sink_16] 7.4693067163134344e+01
pressure[sink_17] 1.5538790238002074e+01
pressure[sink_18] 2.8294695931236586e+00
pressure[sink_19] 7.7662248541372833e+01
pressure[sink_20] 3.0805344177050547e+01
pressure[sink_21] 1.01325
pressure[sink_22] 1.3428190388611885e+00
pressure[sink_23] 8.0278954718898163e+01
pressure[sink_24] 1.01325
pressure[sink_25] 75.1314863629585
pressure[sink_26] 8.2823319810482516e+00
pressure[sink_27] 8.0866291377726043e+01
pressure[sink_28] 7.6828427955508019e+01
pressure[sink_29] 7.7123710229125209e+01
interdiction[source_1,sink_3] 0
interdiction[innode_1,sink_16] 0
interdiction[innode_6,sink_13] 0
interdiction[sink_13,sink_14] 0
interdiction[sink_14,sink_10] 0
interdiction[sink_25,sink_26] 1
interdiction[sink_26,sink_9] 0
interdiction[sink_9,sink_18] 0
interdiction[sink_26,sink_4] 0
interdiction[sink_4,sink_20] 0
interdiction[sink_18,sink_6] 0
interdiction[sink_25,innode_8] 0
interdiction[sink_6,sink_7] 0
interdiction[sink_6,sink_22] 0
interdiction[sink_7,sink_24] 0
interdiction[sink_22,sink_1] 0
interdiction[sink_24,sink_21] 0
interdiction[sink_21,sink_12] 0
interdiction[sink_7,sink_5] 0
interdiction[sink_5,sink_17] 0
interdiction[sink_17,sink_4] 0
interdiction[sink_17,sink_8] 0
interdiction[sink_3,sink_23] 0
interdiction[sink_8,sink_20] 1
interdiction[sink_25,sink_20] 0
interdiction[sink_25,sink_15] 0
interdiction[sink_15,sink_29] 0
interdiction[sink_29,sink_28] 0
interdiction[sink_29,sink_2] 0
interdiction[sink_2,sink_15] 0
interdiction[sink_29,innode_7] 0
interdiction[innode_4,sink_19] 0
interdiction[sink_19,innode_3] 0
interdiction[innode_4,innode_5] 0
interdiction[sink_27,innode_5] 0
interdiction[sink_27,sink_19] 1
interdiction[sink_10,sink_11] 0
interdiction[sink_10,innode_2] 0
interdiction[sink_10,innode_3] 0
interdiction[innode_6,sink_25] 0
interdiction[sink_11,innode_1] 0
interdiction[sink_19,innode_2] 0
interdiction[source_3,innode_4] 0
interdiction[source_2,innode_7] 0
interdiction[sink_3,innode_8] 0
WCcheckFlow[source_1,sink_3] 39
WCcheckFlow[innode_1,sink_16] 1
WCcheckFlow[innode_6,sink_13] 13
WCcheckFlow[sink_13,sink_14] 12
WCcheckFlow[sink_14,sink_10] 11
WCcheckFlow[sink_25,sink_26] 0
WCcheckFlow[sink_26,sink_9] 12
WCcheckFlow[sink_9,sink_18] 11
WCcheckFlow[sink_26,sink_4] -13
WCcheckFlow[sink_4,sink_20] -14
WCcheckFlow[sink_18,sink_6] 10
WCcheckFlow[sink_25,innode_8] -36
WCcheckFlow[sink_6,sink_7] 7
WCcheckFlow[sink_6,sink_22] 2
WCcheckFlow[sink_7,sink_24] 3
WCcheckFlow[sink_22,sink_1] 1
WCcheckFlow[sink_24,sink_21] 2
WCcheckFlow[sink_21,sink_12] 1
WCcheckFlow[sink_7,sink_5] 3
WCcheckFlow[sink_5,sink_17] 2
WCcheckFlow[sink_17,sink_4] 0
WCcheckFlow[sink_17,sink_8] 1
WCcheckFlow[sink_3,sink_23] 1
WCcheckFlow[sink_8,sink_20] 0
WCcheckFlow[sink_25,sink_20] 15
WCcheckFlow[sink_25,sink_15] 6
WCcheckFlow[sink_15,sink_29] 5
WCcheckFlow[sink_29,sink_28] 1
WCcheckFlow[sink_29,sink_2] 1
WCcheckFlow[sink_2,sink_15] 0
WCcheckFlow[sink_29,innode_7] 2
WCcheckFlow[innode_4,sink_19] -4
WCcheckFlow[sink_19,innode_3] -5
WCcheckFlow[innode_4,innode_5] 2
WCcheckFlow[sink_27,innode_5] -1
WCcheckFlow[sink_27,sink_19] 0
WCcheckFlow[sink_10,sink_11] 3
WCcheckFlow[sink_10,innode_2] 1
WCcheckFlow[sink_10,innode_3] 6
WCcheckFlow[innode_6,sink_25] -14
WCcheckFlow[sink_11,innode_1] 2
WCcheckFlow[sink_19,innode_2] 0
WCcheckFlow[source_3,innode_4] -1
WCcheckFlow[source_2,innode_7] -1
WCcheckFlow[sink_3,innode_8] 37
